c Result of efficient AIG-to-CNF conversion using package CNF
p cnf 582 2138
-2 3 388 474 501 0
2 -388 0
2 -501 0
2 -3 0
2 -474 0
3 -546 4 -216 0
3 -546 -4 216 0
-3 546 0
-3 -4 -216 0
-3 4 216 0
4 -545 5 -139 0
4 545 5 -16 0
-4 -5 0
-4 -545 139 0
-4 545 16 0
-5 6 12 14 15 0
5 -15 0
5 -6 0
5 -14 0
5 -12 0
-6 542 543 7 9 0
6 -542 0
6 -9 0
6 -7 0
6 -543 0
-7 534 540 541 8 0
7 -8 0
7 -541 0
7 -534 0
7 -540 0
-8 538 539 544 0
8 -538 0
8 -544 0
8 -539 0
-9 535 536 537 10 0
9 -10 0
9 -537 0
9 -535 0
9 -536 0
-10 530 531 11 0
10 -11 0
10 -531 0
10 -530 0
-11 526 527 532 533 0
11 -533 0
11 -532 0
11 -526 0
11 -527 0
-12 524 528 529 13 0
12 -13 0
12 -529 0
12 -524 0
12 -528 0
-13 522 523 0
13 -522 0
13 -523 0
-14 518 525 0
14 -518 0
14 -525 0
-15 519 520 521 0
15 -519 0
15 -521 0
15 -520 0
-16 546 17 0
-16 -546 -107 0
-16 -546 84 0
16 546 -17 0
16 -546 -84 107 0
-17 547 68 0
-17 -547 18 0
17 -547 -18 0
17 547 -68 0
18 548 -19 0
18 -548 -51 0
-18 -548 51 0
-18 548 19 0
19 549 -20 0
19 -549 -41 0
-19 -549 41 0
-19 549 20 0
20 -21 29 0
-20 21 0
-20 -29 0
21 578 -22 0
-21 -578 0
-21 22 0
22 579 -23 0
22 -579 -26 0
-22 -579 26 0
-22 579 23 0
23 580 -24 0
23 -580 -25 0
-23 -580 25 0
-23 580 24 0
24 -543 -581 0
24 -542 581 0
-24 542 581 0
-24 543 -581 0
25 -545 -581 0
25 -544 581 0
-25 544 581 0
-25 545 -581 0
26 580 -27 0
26 -580 -28 0
-26 -580 28 0
-26 580 27 0
27 -547 -581 0
27 -546 581 0
-27 546 581 0
-27 547 -581 0
28 -549 -581 0
28 -548 581 0
-28 548 581 0
-28 549 -581 0
-29 565 566 30 38 0
29 -565 0
29 -38 0
29 -30 0
29 -566 0
-30 560 561 31 32 0
30 -560 0
30 -32 0
30 -31 0
30 -561 0
-31 562 563 564 0
31 -562 0
31 -564 0
31 -563 0
-32 575 576 33 34 0
32 -575 0
32 -34 0
32 -33 0
32 -576 0
-33 554 555 556 0
33 -554 0
33 -556 0
33 -555 0
-34 559 35 36 37 0
34 -559 0
34 -37 0
34 -36 0
34 -35 0
-35 550 551 0
35 -550 0
35 -551 0
-36 552 553 0
36 -552 0
36 -553 0
-37 557 558 0
37 -557 0
37 -558 0
-38 567 568 577 39 0
38 -39 0
38 -577 0
38 -567 0
38 -568 0
-39 569 574 40 0
39 -40 0
39 -574 0
39 -569 0
-40 570 571 572 573 0
40 -573 0
40 -572 0
40 -570 0
40 -571 0
41 29 -42 0
-41 -29 0
-41 42 0
42 578 -43 0
42 -578 -50 0
-42 -578 50 0
-42 578 43 0
43 579 -44 0
43 -579 -47 0
-43 -579 47 0
-43 579 44 0
44 580 -45 0
44 -580 -46 0
-44 -580 46 0
-44 580 45 0
45 -542 -581 0
45 -541 581 0
-45 541 581 0
-45 542 -581 0
46 -544 -581 0
46 -543 581 0
-46 543 581 0
-46 544 -581 0
47 580 -48 0
47 -580 -49 0
-47 -580 49 0
-47 580 48 0
48 -546 -581 0
48 -545 581 0
-48 545 581 0
-48 546 -581 0
49 -548 -581 0
49 -547 581 0
-49 547 581 0
-49 548 -581 0
50 -549 579 580 581 0
-50 -581 0
-50 -580 0
-50 549 0
-50 -579 0
51 549 -52 0
51 -549 -60 0
-51 -549 60 0
-51 549 52 0
52 29 -53 0
-52 -29 0
-52 53 0
53 578 -54 0
53 -578 -58 0
-53 -578 58 0
-53 578 54 0
54 579 -55 0
54 -579 -57 0
-54 -579 57 0
-54 579 55 0
55 -580 -24 0
55 580 -56 0
-55 580 56 0
-55 -580 24 0
56 -541 -581 0
56 -540 581 0
-56 540 581 0
-56 541 -581 0
57 580 -25 0
57 -580 -27 0
-57 -580 27 0
-57 580 25 0
58 579 -59 0
-58 -579 0
-58 59 0
59 -548 580 581 0
59 -549 580 -581 0
-59 -580 0
-59 549 -581 0
-59 548 581 0
60 29 -61 0
-60 -29 0
-60 61 0
61 578 -62 0
61 -578 -66 0
-61 -578 66 0
-61 578 62 0
62 579 -63 0
62 -579 -65 0
-62 -579 65 0
-62 579 63 0
63 -580 -45 0
63 580 -64 0
-63 580 64 0
-63 -580 45 0
64 -540 -581 0
64 -539 581 0
-64 539 581 0
-64 540 -581 0
65 580 -46 0
65 -580 -48 0
-65 -580 48 0
-65 580 46 0
66 579 -67 0
-66 -579 0
-66 67 0
67 580 -49 0
67 -549 -580 581 0
-67 580 49 0
-67 -580 -581 0
-67 549 -580 0
68 -548 -69 0
68 548 -76 0
-68 548 76 0
-68 -548 69 0
69 549 -70 0
69 -549 -73 0
-69 -549 73 0
-69 549 70 0
70 29 -71 0
-70 -29 0
-70 71 0
71 578 -72 0
-71 -578 0
-71 72 0
72 579 -57 0
72 -579 -59 0
-72 -579 59 0
-72 579 57 0
73 29 -74 0
-73 -29 0
-73 74 0
74 578 -75 0
-74 -578 0
-74 75 0
75 579 -65 0
75 -579 -67 0
-75 -579 67 0
-75 579 65 0
76 549 -77 0
76 -549 -80 0
-76 -549 80 0
-76 549 77 0
77 29 -78 0
-77 -29 0
-77 78 0
78 578 -79 0
-78 -578 0
-78 79 0
79 579 -26 0
-79 -579 0
-79 26 0
80 29 -81 0
-80 -29 0
-80 81 0
81 578 -82 0
-81 -578 0
-81 82 0
82 579 -47 0
82 -579 -83 0
-82 -579 83 0
-82 579 47 0
83 -549 580 581 0
-83 549 0
-83 -581 0
-83 -580 0
-84 547 -548 96 0
-84 547 548 85 0
84 -547 0
84 -548 -96 0
84 548 -85 0
85 549 -86 0
85 -549 -91 0
-85 -549 91 0
-85 549 86 0
86 29 -87 0
-86 -29 0
-86 87 0
87 -578 -79 0
87 578 -88 0
-87 578 88 0
-87 -578 79 0
88 -579 -23 0
88 579 -89 0
-88 579 89 0
-88 -579 23 0
89 -580 -56 0
89 580 -90 0
-89 580 90 0
-89 -580 56 0
90 -539 -581 0
90 -538 581 0
-90 538 581 0
-90 539 -581 0
91 29 -92 0
-91 -29 0
-91 92 0
92 -578 -82 0
92 578 -93 0
-92 578 93 0
-92 -578 82 0
93 -579 -44 0
93 579 -94 0
-93 579 94 0
-93 -579 44 0
94 -580 -64 0
94 580 -95 0
-94 580 95 0
-94 -580 64 0
95 -538 -581 0
95 -537 581 0
-95 537 581 0
-95 538 -581 0
96 549 -97 0
96 -549 -102 0
-96 -549 102 0
-96 549 97 0
97 29 -98 0
-97 -29 0
-97 98 0
98 -578 -72 0
98 578 -99 0
-98 578 99 0
-98 -578 72 0
99 -579 -55 0
99 579 -100 0
-99 579 100 0
-99 -579 55 0
100 -580 -90 0
100 580 -101 0
-100 580 101 0
-100 -580 90 0
101 -537 -581 0
101 -536 581 0
-101 536 581 0
-101 537 -581 0
102 29 -103 0
-102 -29 0
-102 103 0
103 -578 -75 0
103 578 -104 0
-103 578 104 0
-103 -578 75 0
104 -579 -63 0
104 579 -105 0
-104 579 105 0
-104 -579 63 0
105 -580 -95 0
105 580 -106 0
-105 580 106 0
-105 -580 95 0
106 -536 -581 0
106 -535 581 0
-106 535 581 0
-106 536 -581 0
107 -547 -548 126 0
107 -547 548 108 0
-107 547 0
-107 -548 -126 0
-107 548 -108 0
108 549 -109 0
108 -549 -114 0
-108 -549 114 0
-108 549 109 0
109 29 -110 0
-109 -29 0
-109 110 0
110 -578 -22 0
110 578 -111 0
-110 578 111 0
-110 -578 22 0
111 -579 -89 0
111 579 -112 0
-111 579 112 0
-111 -579 89 0
112 -580 -101 0
112 580 -113 0
-112 580 113 0
-112 -580 101 0
113 -535 -581 0
113 -534 581 0
-113 534 581 0
-113 535 -581 0
114 -577 115 -125 0
114 577 115 -121 0
-114 -115 0
-114 -577 125 0
-114 577 121 0
-115 550 551 116 119 0
115 -550 0
115 -119 0
115 -116 0
115 -551 0
-116 559 560 31 117 0
116 -559 0
116 -117 0
116 -31 0
116 -560 0
-117 567 568 118 39 0
117 -567 0
117 -39 0
117 -118 0
117 -568 0
-118 575 576 0
118 -575 0
118 -576 0
-119 561 565 566 120 0
119 -120 0
119 -566 0
119 -561 0
119 -565 0
-120 552 553 33 37 0
120 -552 0
120 -37 0
120 -33 0
120 -553 0
-121 578 122 0
-121 -578 43 0
121 -578 -43 0
121 578 -122 0
122 -579 -94 0
122 579 -123 0
-122 579 123 0
-122 -579 94 0
123 -580 -106 0
123 580 -124 0
-123 580 124 0
-123 -580 106 0
124 -534 -581 0
124 -533 581 0
-124 533 581 0
-124 534 -581 0
125 578 -50 0
-125 -578 0
-125 50 0
126 549 -127 0
126 -549 -133 0
-126 -549 133 0
-126 549 127 0
127 -577 115 -132 0
127 577 115 -128 0
-127 -115 0
-127 -577 132 0
-127 577 128 0
-128 578 129 0
-128 -578 54 0
128 -578 -54 0
128 578 -129 0
129 -579 -100 0
129 579 -130 0
-129 579 130 0
-129 -579 100 0
130 -580 -113 0
130 580 -131 0
-130 580 131 0
-130 -580 113 0
131 -533 -581 0
131 -532 581 0
-131 532 581 0
-131 533 -581 0
132 578 -58 0
-132 -578 0
-132 58 0
133 -577 115 -138 0
133 577 115 -134 0
-133 -115 0
-133 -577 138 0
-133 577 134 0
-134 578 135 0
-134 -578 62 0
134 -578 -62 0
134 578 -135 0
135 -579 -105 0
135 579 -136 0
-135 579 136 0
-135 -579 105 0
136 -580 -124 0
136 580 -137 0
-136 580 137 0
-136 -580 124 0
137 -532 -581 0
137 -531 581 0
-137 531 581 0
-137 532 -581 0
138 578 -66 0
-138 -578 0
-138 66 0
139 -546 -186 0
139 546 -140 163 0
-139 546 140 0
-139 -546 186 0
-139 546 -163 0
-140 547 -548 152 0
-140 547 548 141 0
140 -547 0
140 -548 -152 0
140 548 -141 0
141 549 -142 0
141 -549 -147 0
-141 -549 147 0
-141 549 142 0
142 577 115 -143 0
142 -577 -78 115 0
-142 -115 0
-142 577 143 0
-142 -577 78 0
-143 578 144 0
-143 -578 88 0
143 -578 -88 0
143 578 -144 0
144 -579 -112 0
144 579 -145 0
-144 579 145 0
-144 -579 112 0
145 -580 -131 0
145 580 -146 0
-145 580 146 0
-145 -580 131 0
146 -531 -581 0
146 -530 581 0
-146 530 581 0
-146 531 -581 0
147 577 115 -148 0
147 -577 -81 115 0
-147 -115 0
-147 577 148 0
-147 -577 81 0
-148 578 149 0
-148 -578 93 0
148 -578 -93 0
148 578 -149 0
149 -579 -123 0
149 579 -150 0
-149 579 150 0
-149 -579 123 0
150 -580 -137 0
150 580 -151 0
-150 580 151 0
-150 -580 137 0
151 -530 -581 0
151 -529 581 0
-151 529 581 0
-151 530 -581 0
152 549 -153 0
152 -549 -158 0
-152 -549 158 0
-152 549 153 0
153 577 115 -154 0
153 -577 -71 115 0
-153 -115 0
-153 577 154 0
-153 -577 71 0
-154 578 155 0
-154 -578 99 0
154 -578 -99 0
154 578 -155 0
155 -579 -130 0
155 579 -156 0
-155 579 156 0
-155 -579 130 0
156 -580 -146 0
156 580 -157 0
-156 580 157 0
-156 -580 146 0
157 -529 -581 0
157 -528 581 0
-157 528 581 0
-157 529 -581 0
158 577 115 -159 0
158 -577 -74 115 0
-158 -115 0
-158 577 159 0
-158 -577 74 0
-159 578 160 0
-159 -578 104 0
159 -578 -104 0
159 578 -160 0
160 -579 -136 0
160 579 -161 0
-160 579 161 0
-160 -579 136 0
161 -580 -151 0
161 580 -162 0
-161 580 162 0
-161 -580 151 0
162 -528 -581 0
162 -527 581 0
-162 527 581 0
-162 528 -581 0
163 -547 -548 175 0
163 -547 548 164 0
-163 547 0
-163 -548 -175 0
-163 548 -164 0
164 549 -165 0
164 -549 -170 0
-164 -549 170 0
-164 549 165 0
165 577 115 -166 0
165 -21 115 -166 0
-165 166 0
-165 -115 0
-165 -577 21 0
166 -578 -111 0
166 -577 578 0
166 578 -167 0
-166 -578 111 0
-166 577 578 167 0
167 -579 -145 0
167 579 -168 0
-167 579 168 0
-167 -579 145 0
168 -580 -157 0
168 580 -169 0
-168 580 169 0
-168 -580 157 0
169 -527 -581 0
169 -526 581 0
-169 526 581 0
-169 527 -581 0
170 577 115 -171 0
170 -577 -42 115 0
-170 -115 0
-170 577 171 0
-170 -577 42 0
-171 -578 122 0
-171 578 172 0
171 -578 -122 0
171 578 -172 0
-172 579 173 0
-172 -579 150 0
172 -579 -150 0
172 579 -173 0
173 -580 -162 0
173 580 -174 0
-173 580 174 0
-173 -580 162 0
174 -526 -581 0
174 -525 581 0
-174 525 581 0
-174 526 -581 0
175 549 -176 0
175 -549 -181 0
-175 -549 181 0
-175 549 176 0
176 577 115 -177 0
176 -577 -53 115 0
-176 -115 0
-176 577 177 0
-176 -577 53 0
-177 -578 129 0
-177 578 178 0
177 -578 -129 0
177 578 -178 0
-178 579 179 0
-178 -579 156 0
178 -579 -156 0
178 579 -179 0
179 -580 -169 0
179 580 -180 0
-179 580 180 0
-179 -580 169 0
180 -525 -581 0
180 -524 581 0
-180 524 581 0
-180 525 -581 0
181 577 115 -182 0
181 -577 -61 115 0
-181 -115 0
-181 577 182 0
-181 -577 61 0
-182 -578 135 0
-182 578 183 0
182 -578 -135 0
182 578 -183 0
-183 579 184 0
-183 -579 161 0
183 -579 -161 0
183 579 -184 0
184 -580 -174 0
184 580 -185 0
-184 580 185 0
-184 -580 174 0
185 -524 -581 0
185 -523 581 0
-185 523 581 0
-185 524 -581 0
186 547 -187 0
186 -547 548 -210 0
-186 -547 -548 0
-186 547 187 0
-186 -547 210 0
187 548 -188 0
187 -548 -199 0
-187 -548 199 0
-187 548 188 0
188 549 -189 0
188 -549 -194 0
-188 -549 194 0
-188 549 189 0
189 577 115 -190 0
189 -577 -87 115 0
-189 -115 0
-189 577 190 0
-189 -577 87 0
-190 -578 144 0
-190 578 191 0
190 -578 -144 0
190 578 -191 0
-191 579 192 0
-191 -579 168 0
191 -579 -168 0
191 579 -192 0
192 -580 -180 0
192 580 -193 0
-192 580 193 0
-192 -580 180 0
193 -523 -581 0
193 -522 581 0
-193 522 581 0
-193 523 -581 0
194 577 115 -195 0
194 -577 -92 115 0
-194 -115 0
-194 577 195 0
-194 -577 92 0
-195 -578 149 0
-195 578 196 0
195 -578 -149 0
195 578 -196 0
-196 -579 173 0
-196 579 197 0
196 -579 -173 0
196 579 -197 0
-197 580 198 0
-197 -580 185 0
197 -580 -185 0
197 580 -198 0
198 -522 -581 0
198 -521 581 0
-198 521 581 0
-198 522 -581 0
199 549 -200 0
199 -549 -205 0
-199 -549 205 0
-199 549 200 0
200 577 115 -201 0
200 -577 -98 115 0
-200 -115 0
-200 577 201 0
-200 -577 98 0
-201 -578 155 0
-201 578 202 0
201 -578 -155 0
201 578 -202 0
-202 -579 179 0
-202 579 203 0
202 -579 -179 0
202 579 -203 0
-203 580 204 0
-203 -580 193 0
203 -580 -193 0
203 580 -204 0
204 -521 -581 0
204 -520 581 0
-204 520 581 0
-204 521 -581 0
205 -103 115 -206 0
205 577 115 -206 0
-205 -115 0
-205 206 0
-205 -577 103 0
-206 577 578 207 0
-206 577 -578 160 0
206 -577 0
206 -578 -160 0
206 578 -207 0
-207 -579 184 0
-207 579 209 0
-207 579 -208 0
207 -579 -184 0
207 579 208 -209 0
208 520 580 -581 0
-208 581 0
-208 -580 0
-208 -520 0
209 -519 580 0
209 -580 -198 0
209 580 -581 0
-209 -580 198 0
-209 519 580 581 0
210 549 -211 0
-210 -549 0
-210 211 0
211 -110 115 -212 0
211 577 115 -212 0
-211 -115 0
-211 212 0
-211 -577 110 0
-212 577 578 213 0
-212 577 -578 167 0
212 -577 0
212 -578 -167 0
212 578 -213 0
-213 -579 192 0
-213 579 214 215 0
213 -579 -192 0
213 579 -215 0
213 579 -214 0
214 -518 580 581 0
-214 518 0
-214 -581 0
-214 -580 0
-215 580 581 0
-215 -580 204 0
-215 519 580 0
215 -580 -204 0
215 -519 580 -581 0
216 -577 115 -309 0
216 577 115 -217 0
-216 -115 0
-216 -577 309 0
-216 577 217 0
-217 578 218 0
-217 -578 -286 0
-217 -578 260 0
217 578 -218 0
217 -578 -260 286 0
-218 579 219 0
-218 -579 240 0
218 -579 -240 0
218 579 -219 0
-219 580 234 0
-219 -580 220 0
219 -580 -220 0
219 580 -234 0
220 581 -221 0
220 -581 -228 0
-220 -581 228 0
-220 581 221 0
221 222 -223 0
-221 -222 0
-221 223 0
-222 545 5 0
222 -545 0
222 -5 0
223 546 -224 0
-223 -546 0
-223 224 0
224 547 -225 0
224 -547 548 -549 0
-224 -547 -548 0
-224 547 225 0
-224 -547 549 0
225 548 -226 0
225 -548 -227 0
-225 -548 227 0
-225 548 226 0
226 -545 -549 0
226 -544 549 0
-226 544 549 0
-226 545 -549 0
227 -547 -549 0
227 -546 549 0
-227 546 549 0
-227 547 -549 0
228 222 -229 0
-228 -222 0
-228 229 0
229 546 -230 0
-229 -546 0
-229 230 0
230 547 -231 0
230 -547 548 549 0
-230 -547 -548 0
-230 547 231 0
-230 -547 -549 0
231 548 -232 0
231 -548 -233 0
-231 -548 233 0
-231 548 232 0
232 -544 -549 0
232 -543 549 0
-232 543 549 0
-232 544 -549 0
233 -546 -549 0
233 -545 549 0
-233 545 549 0
-233 546 -549 0
234 581 -235 0
234 -581 -236 0
-234 -581 236 0
-234 581 235 0
235 546 547 -548 222 0
-235 -546 0
-235 -222 0
-235 548 0
-235 -547 0
236 222 -237 0
-236 -222 0
-236 237 0
237 546 -238 0
-237 -546 0
-237 238 0
238 547 -239 0
-238 -547 0
-238 239 0
239 -547 -548 0
239 548 -233 0
239 -548 -549 0
-239 548 233 0
-239 547 -548 549 0
240 580 -241 0
240 -580 -253 0
-240 -580 253 0
-240 580 241 0
241 581 -242 0
241 -581 -248 0
-241 -581 248 0
-241 581 242 0
242 222 -243 0
-242 -222 0
-242 243 0
243 546 -244 0
-243 -546 0
-243 244 0
244 -547 -245 0
244 547 -246 0
-244 -547 245 0
-244 547 246 0
-245 547 548 -549 0
-245 546 548 549 0
245 -548 0
245 -546 549 0
245 -547 -549 0
246 -548 -226 0
246 548 -247 0
-246 548 247 0
-246 -548 226 0
247 -543 -549 0
247 -542 549 0
-247 542 549 0
-247 543 -549 0
248 222 -249 0
-248 -222 0
-248 249 0
249 546 -250 0
-249 -546 0
-249 250 0
250 -547 -548 0
250 547 -251 0
250 -547 -233 0
-250 547 251 0
-250 -547 548 233 0
251 -548 -232 0
251 548 -252 0
-251 548 252 0
-251 -548 232 0
252 -542 -549 0
252 -541 549 0
-252 541 549 0
-252 542 -549 0
253 581 -254 0
-253 -581 0
-253 254 0
254 222 -255 0
-254 -222 0
-254 255 0
255 546 -257 0
255 -546 547 -256 0
-255 -546 -547 0
-255 546 257 0
-255 -546 256 0
256 548 -549 0
-256 -548 0
-256 549 0
257 -547 -225 0
257 547 -258 0
-257 547 258 0
-257 -547 225 0
258 -548 -247 0
258 548 -259 0
-258 548 259 0
-258 -548 247 0
259 -541 -549 0
259 -540 549 0
-259 540 549 0
-259 541 -549 0
-260 579 -580 274 0
-260 579 580 261 0
260 -579 0
260 -580 -274 0
260 580 -261 0
261 581 -262 0
261 -581 -268 0
-261 -581 268 0
-261 581 262 0
262 222 -263 0
-262 -222 0
-262 263 0
263 -546 -264 0
263 546 -265 0
-263 546 265 0
-263 -546 264 0
264 547 -548 0
264 -546 547 549 0
-264 -547 0
-264 548 -549 0
-264 546 548 0
265 -547 -246 0
265 547 -266 0
-265 547 266 0
-265 -547 246 0
266 -548 -259 0
266 548 -267 0
-266 548 267 0
-266 -548 259 0
267 -539 -549 0
267 -538 549 0
-267 538 549 0
-267 539 -549 0
268 222 -269 0
-268 -222 0
-268 269 0
269 -546 -238 0
269 546 -270 0
-269 546 270 0
-269 -546 238 0
270 -547 -251 0
270 547 -271 0
-270 547 271 0
-270 -547 251 0
271 548 -272 0
271 -548 -273 0
-271 -548 273 0
-271 548 272 0
272 -538 -549 0
272 -537 549 0
-272 537 549 0
-272 538 -549 0
273 -540 -549 0
273 -539 549 0
-273 539 549 0
-273 540 -549 0
274 581 -275 0
274 -581 -280 0
-274 -581 280 0
-274 581 275 0
275 222 -276 0
-275 -222 0
-275 276 0
276 -546 -224 0
276 546 -277 0
-276 546 277 0
-276 -546 224 0
277 -547 -258 0
277 547 -278 0
-277 547 278 0
-277 -547 258 0
278 -548 -267 0
278 548 -279 0
-278 548 279 0
-278 -548 267 0
279 -537 -549 0
279 -536 549 0
-279 536 549 0
-279 537 -549 0
280 222 -281 0
-280 -222 0
-280 281 0
281 -546 -230 0
281 546 -282 0
-281 546 282 0
-281 -546 230 0
282 547 -283 0
282 -547 -285 0
-282 -547 285 0
-282 547 283 0
283 -548 -272 0
283 548 -284 0
-283 548 284 0
-283 -548 272 0
284 -536 -549 0
284 -535 549 0
-284 535 549 0
-284 536 -549 0
285 -548 -252 0
285 548 -273 0
-285 548 273 0
-285 -548 252 0
286 -579 -580 297 0
286 -579 580 287 0
-286 579 0
-286 -580 -297 0
-286 580 -287 0
287 581 -288 0
287 -581 -293 0
-287 -581 293 0
-287 581 288 0
288 222 -289 0
-288 -222 0
-288 289 0
289 -546 -244 0
289 546 -290 0
-289 546 290 0
-289 -546 244 0
290 -547 -266 0
290 547 -291 0
-290 547 291 0
-290 -547 266 0
291 -548 -279 0
291 548 -292 0
-291 548 292 0
-291 -548 279 0
292 -535 -549 0
292 -534 549 0
-292 534 549 0
-292 535 -549 0
293 546 222 -294 0
293 -546 222 -250 0
-293 -222 0
-293 -546 250 0
-293 546 294 0
294 -547 -271 0
294 547 -295 0
-294 547 295 0
-294 -547 271 0
295 -548 -284 0
295 548 -296 0
-295 548 296 0
-295 -548 284 0
296 -534 -549 0
296 -533 549 0
-296 533 549 0
-296 534 -549 0
297 581 -298 0
297 -581 -304 0
-297 -581 304 0
-297 581 298 0
298 -545 5 -303 0
298 545 5 -299 0
-298 -5 0
-298 -545 303 0
-298 545 299 0
299 -546 -257 0
299 546 -300 0
-299 546 300 0
-299 -546 257 0
300 -547 -278 0
300 547 -301 0
-300 547 301 0
-300 -547 278 0
301 -548 -292 0
301 548 -302 0
-301 548 302 0
-301 -548 292 0
302 -533 -549 0
302 -532 549 0
-302 532 549 0
-302 533 -549 0
303 546 547 548 -549 0
-303 549 0
-303 -548 0
-303 -546 0
-303 -547 0
304 546 222 -306 0
304 -546 222 -305 0
-304 -222 0
-304 -546 305 0
-304 546 306 0
305 -547 -231 0
305 547 -285 0
-305 547 285 0
-305 -547 231 0
306 -547 -283 0
306 547 -307 0
-306 547 307 0
-306 -547 283 0
307 -548 -296 0
307 548 -308 0
-307 548 308 0
-307 -548 296 0
308 -532 -549 0
308 -531 549 0
-308 531 549 0
-308 532 -549 0
309 -578 -358 0
309 578 -310 334 0
-309 578 310 0
-309 -578 358 0
-309 578 -334 0
-310 579 -580 323 0
-310 579 580 311 0
310 -579 0
310 -580 -323 0
310 580 -311 0
311 581 -312 0
311 -581 -318 0
-311 -581 318 0
-311 581 312 0
312 545 5 -314 0
312 -545 5 -313 0
-312 -5 0
-312 -545 313 0
-312 545 314 0
313 546 547 -548 0
-313 548 0
-313 -547 0
-313 -546 0
314 -546 -265 0
314 546 -315 0
-314 546 315 0
-314 -546 265 0
315 -547 -291 0
315 547 -316 0
-315 547 316 0
-315 -547 291 0
316 -548 -302 0
316 548 -317 0
-316 548 317 0
-316 -548 302 0
317 -531 -549 0
317 -530 549 0
-317 530 549 0
-317 531 -549 0
318 545 5 -319 0
318 -545 5 -237 0
-318 -5 0
-318 -545 237 0
-318 545 319 0
319 -546 -270 0
319 546 -320 0
-319 546 320 0
-319 -546 270 0
320 -547 -295 0
320 547 -321 0
-320 547 321 0
-320 -547 295 0
321 -548 -308 0
321 548 -322 0
-321 548 322 0
-321 -548 308 0
322 -530 -549 0
322 -529 549 0
-322 529 549 0
-322 530 -549 0
323 581 -324 0
323 -581 -329 0
-323 -581 329 0
-323 581 324 0
324 545 5 -325 0
324 -545 5 -223 0
-324 -5 0
-324 -545 223 0
-324 545 325 0
325 -546 -277 0
325 546 -326 0
-325 546 326 0
-325 -546 277 0
326 -547 -301 0
326 547 -327 0
-326 547 327 0
-326 -547 301 0
327 -548 -317 0
327 548 -328 0
-327 548 328 0
-327 -548 317 0
328 -529 -549 0
328 -528 549 0
-328 528 549 0
-328 529 -549 0
329 545 5 -330 0
329 -545 5 -229 0
-329 -5 0
-329 -545 229 0
-329 545 330 0
330 -546 -282 0
330 546 -331 0
-330 546 331 0
-330 -546 282 0
331 -547 -307 0
331 547 -332 0
-331 547 332 0
-331 -547 307 0
332 -548 -322 0
332 548 -333 0
-332 548 333 0
-332 -548 322 0
333 -528 -549 0
333 -527 549 0
-333 527 549 0
-333 528 -549 0
334 -579 -580 346 0
334 -579 580 335 0
-334 579 0
-334 -580 -346 0
-334 580 -335 0
335 581 -336 0
335 -581 -341 0
-335 -581 341 0
-335 581 336 0
336 545 5 -337 0
336 -545 5 -243 0
-336 -5 0
-336 -545 243 0
-336 545 337 0
337 -546 -290 0
337 546 -338 0
-337 546 338 0
-337 -546 290 0
338 -547 -316 0
338 547 -339 0
-338 547 339 0
-338 -547 316 0
339 -548 -328 0
339 548 -340 0
-339 548 340 0
-339 -548 328 0
340 -527 -549 0
340 -526 549 0
-340 526 549 0
-340 527 -549 0
341 545 5 -342 0
341 -545 5 -249 0
-341 -5 0
-341 -545 249 0
-341 545 342 0
342 -546 -294 0
342 546 -343 0
-342 546 343 0
-342 -546 294 0
343 -547 -321 0
343 547 -344 0
-343 547 344 0
-343 -547 321 0
344 -548 -333 0
344 548 -345 0
-344 548 345 0
-344 -548 333 0
345 -526 -549 0
345 -525 549 0
-345 525 549 0
-345 526 -549 0
346 581 -347 0
346 -581 -352 0
-346 -581 352 0
-346 581 347 0
347 545 5 -348 0
347 -545 5 -255 0
-347 -5 0
-347 545 348 0
-347 -545 255 0
-348 -546 300 0
-348 546 349 0
348 -546 -300 0
348 546 -349 0
-349 547 350 0
-349 -547 327 0
349 -547 -327 0
349 547 -350 0
350 -548 -340 0
350 548 -351 0
-350 548 351 0
-350 -548 340 0
351 -525 -549 0
351 -524 549 0
-351 524 549 0
-351 525 -549 0
352 -545 5 -357 0
352 545 5 -353 0
-352 -5 0
-352 -545 357 0
-352 545 353 0
353 -546 -306 0
353 546 -354 0
-353 546 354 0
-353 -546 306 0
354 -547 -332 0
354 547 -355 0
-354 547 355 0
-354 -547 332 0
355 -548 -345 0
355 548 -356 0
-355 548 356 0
-355 -548 345 0
356 -524 -549 0
356 -523 549 0
-356 523 549 0
-356 524 -549 0
357 546 -305 0
-357 -546 0
-357 305 0
358 579 -359 0
358 -579 580 -382 0
-358 -579 -580 0
-358 579 359 0
-358 -579 382 0
359 580 -360 0
359 -580 -371 0
-359 -580 371 0
-359 580 360 0
360 581 -361 0
360 -581 -366 0
-360 -581 366 0
-360 581 361 0
361 545 5 -362 0
361 -545 5 -263 0
-361 -5 0
-361 545 362 0
-361 -545 263 0
-362 -546 315 0
-362 546 363 0
362 -546 -315 0
362 546 -363 0
-363 547 364 0
-363 -547 339 0
363 -547 -339 0
363 547 -364 0
364 -548 -351 0
364 548 -365 0
-364 548 365 0
-364 -548 351 0
365 -523 -549 0
365 -522 549 0
-365 522 549 0
-365 523 -549 0
366 545 5 -367 0
366 -545 5 -269 0
-366 -5 0
-366 545 367 0
-366 -545 269 0
-367 -546 320 0
-367 546 368 0
367 -546 -320 0
367 546 -368 0
-368 -547 344 0
-368 547 369 0
368 -547 -344 0
368 547 -369 0
-369 548 370 0
-369 -548 356 0
369 -548 -356 0
369 548 -370 0
370 -522 -549 0
370 -521 549 0
-370 521 549 0
-370 522 -549 0
371 581 -372 0
371 -581 -377 0
-371 -581 377 0
-371 581 372 0
372 545 5 -373 0
372 -545 5 -276 0
-372 -5 0
-372 545 373 0
-372 -545 276 0
-373 -546 326 0
-373 546 374 0
373 -546 -326 0
373 546 -374 0
-374 -547 350 0
-374 547 375 0
374 -547 -350 0
374 547 -375 0
-375 548 376 0
-375 -548 365 0
375 -548 -365 0
375 548 -376 0
376 -521 -549 0
376 -520 549 0
-376 520 549 0
-376 521 -549 0
377 545 5 -378 0
377 -545 5 -281 0
-377 -5 0
-377 545 378 0
-377 -545 281 0
-378 -546 331 0
-378 546 379 0
378 -546 -331 0
378 546 -379 0
-379 -547 355 0
-379 547 380 0
379 -547 -355 0
379 547 -380 0
-380 548 381 0
-380 -548 370 0
380 -548 -370 0
380 548 -381 0
381 -520 -549 0
381 -519 549 0
-381 519 549 0
-381 520 -549 0
382 581 -383 0
-382 -581 0
-382 383 0
383 545 5 -384 0
383 -545 5 -289 0
-383 -5 0
-383 545 384 0
-383 -545 289 0
-384 -546 338 0
-384 546 385 0
384 -546 -338 0
384 546 -385 0
-385 -547 364 0
-385 547 386 0
385 -547 -364 0
385 547 -386 0
-386 548 387 0
-386 -548 376 0
386 -548 -376 0
386 548 -387 0
387 -519 -549 0
387 -518 549 0
-387 518 549 0
-387 519 -549 0
-388 548 389 0
-388 389 444 460 0
-388 389 -444 -460 0
388 -389 0
388 -548 444 -460 0
388 -548 -444 460 0
389 -545 390 -417 0
389 -545 -390 417 0
-389 545 0
-389 -390 -417 0
-389 390 417 0
390 -545 5 -406 0
390 545 5 -391 0
-390 -5 0
-390 -545 406 0
-390 545 391 0
-391 546 392 0
-391 -546 399 0
391 -546 -399 0
391 546 -392 0
-392 547 396 0
-392 -547 393 0
392 -547 -393 0
392 547 -396 0
393 548 -394 0
393 -548 -395 0
-393 -548 395 0
-393 548 394 0
394 549 -41 0
394 -549 -52 0
-394 -549 52 0
-394 549 41 0
395 549 -60 0
395 -549 -86 0
-395 -549 86 0
-395 549 60 0
396 548 -397 0
396 -548 -398 0
-396 -548 398 0
-396 548 397 0
397 -549 -70 0
397 549 -80 0
-397 549 80 0
-397 -549 70 0
398 -549 -20 0
398 549 -73 0
-398 549 73 0
-398 -549 20 0
399 547 -400 0
399 -547 -403 0
-399 -547 403 0
-399 547 400 0
400 548 -401 0
400 -548 -402 0
-400 -548 402 0
-400 548 401 0
401 549 -91 0
401 -549 -97 0
-401 -549 97 0
-401 549 91 0
402 549 -102 0
402 -549 -109 0
-402 -549 109 0
-402 549 102 0
403 548 -404 0
403 -548 -405 0
-403 -548 405 0
-403 548 404 0
404 549 -114 0
404 -549 -127 0
-404 -549 127 0
-404 549 114 0
405 549 -133 0
405 -549 -142 0
-405 -549 142 0
-405 549 133 0
406 546 -407 0
406 -546 547 -414 0
-406 -546 -547 0
-406 546 407 0
-406 -546 414 0
407 547 -408 0
407 -547 -411 0
-407 -547 411 0
-407 547 408 0
408 548 -409 0
408 -548 -410 0
-408 -548 410 0
-408 548 409 0
409 549 -147 0
409 -549 -153 0
-409 -549 153 0
-409 549 147 0
410 549 -158 0
410 -549 -165 0
-410 -549 165 0
-410 549 158 0
411 548 -412 0
411 -548 -413 0
-411 -548 413 0
-411 548 412 0
412 549 -170 0
412 -549 -176 0
-412 -549 176 0
-412 549 170 0
413 549 -181 0
413 -549 -189 0
-413 -549 189 0
-413 549 181 0
414 548 -415 0
414 -548 -416 0
-414 -548 416 0
-414 548 415 0
415 549 -194 0
415 -549 -200 0
-415 -549 200 0
-415 549 194 0
416 549 -205 0
416 -549 -211 0
-416 -549 211 0
-416 549 205 0
417 -577 115 -433 0
417 577 115 -418 0
-417 -115 0
-417 -577 433 0
-417 577 418 0
-418 578 419 0
-418 -578 426 0
418 -578 -426 0
418 578 -419 0
-419 579 423 0
-419 -579 420 0
419 -579 -420 0
419 579 -423 0
420 580 -421 0
420 -580 -422 0
-420 -580 422 0
-420 580 421 0
421 581 -248 0
421 -581 -254 0
-421 -581 254 0
-421 581 248 0
422 -581 -262 0
-422 581 0
-422 262 0
423 580 -424 0
423 -580 -425 0
-423 -580 425 0
-423 580 424 0
424 -581 -221 0
424 581 -236 0
-424 581 236 0
-424 -581 221 0
425 581 -228 0
425 -581 -242 0
-425 -581 242 0
-425 581 228 0
426 579 -427 0
426 -579 -430 0
-426 -579 430 0
-426 579 427 0
427 580 -428 0
427 -580 -429 0
-427 -580 429 0
-427 580 428 0
428 581 -268 0
428 -581 -275 0
-428 -581 275 0
-428 581 268 0
429 581 -280 0
429 -581 -288 0
-429 -581 288 0
-429 581 280 0
430 580 -431 0
430 -580 -432 0
-430 -580 432 0
-430 580 431 0
431 581 -293 0
431 -581 -298 0
-431 -581 298 0
-431 581 293 0
432 581 -304 0
432 -581 -312 0
-432 -581 312 0
-432 581 304 0
433 578 -434 0
433 -578 579 -441 0
-433 -578 -579 0
-433 578 434 0
-433 -578 441 0
434 579 -435 0
434 -579 -438 0
-434 -579 438 0
-434 579 435 0
435 580 -436 0
435 -580 -437 0
-435 -580 437 0
-435 580 436 0
436 581 -318 0
436 -581 -324 0
-436 -581 324 0
-436 581 318 0
437 581 -329 0
437 -581 -336 0
-437 -581 336 0
-437 581 329 0
438 580 -439 0
438 -580 -440 0
-438 -580 440 0
-438 580 439 0
439 581 -341 0
439 -581 -347 0
-439 -581 347 0
-439 581 341 0
440 581 -352 0
440 -581 -361 0
-440 -581 361 0
-440 581 352 0
441 580 -442 0
441 -580 -443 0
-441 -580 443 0
-441 580 442 0
442 581 -366 0
442 -581 -372 0
-442 -581 372 0
-442 581 366 0
443 581 -377 0
443 -581 -383 0
-443 -581 383 0
-443 581 377 0
444 -545 5 -454 0
444 545 5 -445 0
-444 -5 0
-444 -545 454 0
-444 545 445 0
-445 546 446 0
-445 -546 -453 0
-445 -546 452 0
445 546 -446 0
445 -546 -452 453 0
-446 547 448 0
-446 -547 447 0
446 -547 -447 0
446 547 -448 0
447 -548 -19 0
447 548 -69 0
-447 548 69 0
-447 -548 19 0
448 -548 -76 0
448 548 -449 0
-448 548 449 0
-448 -548 76 0
449 -549 -450 0
449 549 -451 0
-449 549 451 0
-449 -549 450 0
450 29 -138 0
-450 -29 0
-450 138 0
451 29 -132 0
-451 -29 0
-451 132 0
-452 547 -548 85 0
-452 547 548 51 0
452 -547 0
452 -548 -85 0
452 548 -51 0
453 -547 -548 108 0
453 -547 548 96 0
-453 547 0
-453 -548 -108 0
-453 548 -96 0
454 546 -455 0
454 -546 -458 459 0
-454 -546 458 0
-454 546 455 0
-454 -546 -459 0
455 547 -456 0
455 -547 -457 0
-455 -547 457 0
-455 547 456 0
456 548 -126 0
456 -548 -141 0
-456 -548 141 0
-456 548 126 0
457 548 -152 0
457 -548 -164 0
-457 -548 164 0
-457 548 152 0
-458 547 -548 188 0
-458 547 548 175 0
458 -547 0
458 -548 -188 0
458 548 -175 0
459 -547 -548 210 0
459 -547 548 199 0
-459 547 0
-459 -548 -210 0
-459 548 -199 0
460 -577 115 -468 0
460 577 115 -461 0
-460 -115 0
-460 -577 468 0
-460 577 461 0
-461 578 462 0
-461 -578 -467 0
-461 -578 466 0
461 578 -462 0
461 -578 -466 467 0
-462 579 463 0
-462 -579 465 0
462 -579 -465 0
462 579 -463 0
-463 580 -581 0
-463 -580 234 0
-463 580 464 0
463 -580 -234 0
463 580 581 -464 0
464 222 -303 0
-464 -222 0
-464 303 0
465 580 -220 0
465 -580 -241 0
-465 -580 241 0
-465 580 220 0
-466 579 -580 261 0
-466 579 580 253 0
466 -579 0
466 -580 -261 0
466 580 -253 0
467 -579 -580 287 0
467 -579 580 274 0
-467 579 0
-467 -580 -287 0
-467 580 -274 0
468 578 -469 0
468 -578 -472 473 0
-468 -578 472 0
-468 578 469 0
-468 -578 -473 0
469 579 -470 0
469 -579 -471 0
-469 -579 471 0
-469 579 470 0
470 580 -297 0
470 -580 -311 0
-470 -580 311 0
-470 580 297 0
471 580 -323 0
471 -580 -335 0
-471 -580 335 0
-471 580 323 0
-472 579 -580 360 0
-472 579 580 346 0
472 -579 0
472 -580 -360 0
472 580 -346 0
473 -579 -580 382 0
473 -579 580 371 0
-473 579 0
-473 -580 -382 0
-473 580 -371 0
474 -547 475 -488 0
474 -547 -475 488 0
-474 547 0
-474 -475 -488 0
-474 475 488 0
475 -545 5 -483 0
475 545 5 -476 0
-475 -5 0
-475 -545 483 0
-475 545 476 0
-476 546 477 0
-476 -546 -482 0
-476 -546 481 0
476 546 -477 0
476 -546 -481 482 0
-477 547 479 0
-477 -547 478 0
477 -547 -478 0
477 547 -479 0
478 -548 -394 0
478 548 -398 0
-478 548 398 0
-478 -548 394 0
479 -548 -397 0
479 548 -480 0
-479 548 480 0
-479 -548 397 0
480 -549 -77 0
480 549 -450 0
-480 549 450 0
-480 -549 77 0
-481 547 -548 401 0
-481 547 548 395 0
481 -547 0
481 -548 -401 0
481 548 -395 0
482 -547 -548 404 0
482 -547 548 402 0
-482 547 0
-482 -548 -404 0
-482 548 -402 0
483 -546 -486 0
483 546 -484 485 0
-483 546 484 0
-483 -546 486 0
-483 546 -485 0
-484 547 -548 409 0
-484 547 548 405 0
484 -547 0
484 -548 -409 0
484 548 -405 0
485 -547 -548 412 0
485 -547 548 410 0
-485 547 0
-485 -548 -412 0
-485 548 -410 0
486 547 -487 0
486 -547 548 -416 0
-486 -547 -548 0
-486 547 487 0
-486 -547 416 0
487 548 -413 0
487 -548 -415 0
-487 -548 415 0
-487 548 413 0
488 -577 115 -496 0
488 577 115 -489 0
-488 -115 0
-488 -577 496 0
-488 577 489 0
-489 578 490 0
-489 -578 -495 0
-489 -578 494 0
489 578 -490 0
489 -578 -494 495 0
-490 579 491 0
-490 -579 493 0
490 -579 -493 0
490 579 -491 0
-491 580 492 0
-491 -580 424 0
491 -580 -424 0
491 580 -492 0
492 -581 -235 0
-492 581 0
-492 235 0
493 -580 -421 0
493 580 -425 0
-493 580 425 0
-493 -580 421 0
-494 579 -580 428 0
-494 579 580 422 0
494 -579 0
494 -580 -428 0
494 580 -422 0
495 -579 -580 431 0
495 -579 580 429 0
-495 579 0
-495 -580 -431 0
-495 580 -429 0
496 -578 -499 0
496 578 -497 498 0
-496 578 497 0
-496 -578 499 0
-496 578 -498 0
-497 579 -580 436 0
-497 579 580 432 0
497 -579 0
497 -580 -436 0
497 580 -432 0
498 -579 -580 439 0
498 -579 580 437 0
-498 579 0
-498 -580 -439 0
-498 580 -437 0
499 579 -500 0
499 -579 580 -443 0
-499 -579 -580 0
-499 579 500 0
-499 -579 443 0
500 580 -440 0
500 -580 -442 0
-500 -580 442 0
-500 580 440 0
501 -549 502 -510 0
501 -549 -502 510 0
-501 549 0
-501 -502 -510 0
-501 502 510 0
502 -545 5 -507 0
502 545 5 -503 0
-502 -5 0
-502 -545 507 0
-502 545 503 0
-503 546 504 0
-503 -546 506 0
503 -546 -506 0
503 546 -504 0
-504 547 505 0
-504 -547 396 0
504 -547 -396 0
504 547 -505 0
505 -548 -480 0
505 548 -549 -451 0
-505 -548 480 0
-505 548 451 0
-505 548 549 0
506 547 -393 0
506 -547 -400 0
-506 -547 400 0
-506 547 393 0
507 546 -508 0
507 -546 -509 0
-507 -546 509 0
-507 546 508 0
508 547 -403 0
508 -547 -408 0
-508 -547 408 0
-508 547 403 0
509 547 -411 0
509 -547 -414 0
-509 -547 414 0
-509 547 411 0
510 -577 115 -515 0
510 577 115 -511 0
-510 -115 0
-510 -577 515 0
-510 577 511 0
-511 -578 514 0
-511 578 512 0
511 578 -512 0
511 -578 -514 0
512 -579 -423 0
512 579 -513 0
-512 -579 423 0
-512 579 513 0
-513 581 0
-513 -580 235 0
-513 580 464 0
513 580 -581 -464 0
513 -580 -581 -235 0
514 579 -420 0
514 -579 -427 0
-514 -579 427 0
-514 579 420 0
515 578 -516 0
515 -578 -517 0
-515 -578 517 0
-515 578 516 0
516 579 -430 0
516 -579 -435 0
-516 -579 435 0
-516 579 430 0
517 579 -438 0
517 -579 -441 0
-517 -579 441 0
-517 579 438 0
-582 0
2 0

